Name: Ing0203-3
Courses: 74
Rooms: 16
Days: 5
Periods_per_day: 5
Curricula: 66
Min_Max_Daily_Lectures: 2 4
UnavailabilityConstraints: 475
RoomConstraints: 86

COURSES:
c0012 t000 3 3 34 0
c0013 t001 3 3 17 0
c0035 t002 3 3 16 0
c0036 t003 3 3 16 0
c0042 t004 3 3 86 0
c0045 t005 3 3 86 0
c0052 t006 3 3 149 0
c0053 t007 3 2 92 1
c0055 t008 6 4 163 0
c0057 t009 3 3 86 0
c0094 t010 3 3 89 0
c0098 t011 3 3 114 0
c0104 t012 3 3 114 0
c0107 t013 3 3 89 0
c0112 t014 3 3 89 0
c0114 t015 3 3 114 0
c0116 t006 3 3 119 0
c0117 t016 3 3 119 0
c0130 t017 3 2 150 1
c0151 t018 3 3 150 0
c0158 t019 7 1 50 1
c0159 t020 7 1 50 1
c0160 t021 7 1 50 1
c0177 t010 3 3 159 0
c0179 t022 3 3 159 0
c0181 t023 3 3 159 0
c0198 t024 3 2 81 1
c0210 t025 3 3 147 0
c0214 t026 3 3 147 0
c0218 t027 3 3 107 0
c0223 t001 3 3 107 0
c0226 t028 3 3 147 0
c0227 t029 3 3 100 0
c0254 t030 3 3 138 0
c0259 t031 3 2 169 1
c0271 t032 3 3 138 0
c0457 t033 3 3 1 0
c0481 t034 3 3 1 0
c0511 t035 3 3 9 0
c0579 t036 3 3 43 0
c0580 t036 3 3 43 0
c0595 t037 3 3 1 0
c0632 t038 3 3 15 0
c0625 t039 5 4 117 0
c0624 t040 5 4 24 1
c0063 t041 5 4 220 0
c0286 t042 5 4 140 0
c0308 t037 5 4 15 1
c0299 t043 3 3 80 0
c299b t043 2 2 15 0
c0309 t044 3 2 49 1
c309b t044 2 1 15 1
c0312 t045 3 3 21 0
c0301 t046 5 4 32 0
c0317 t047 3 3 92 0
c0291 t048 5 4 92 0
c0284 t049 5 4 225 1
c0330 t050 5 3 38 0
c0342 t051 3 3 15 0
c0343 t052 3 3 31 0
c0331 t053 5 3 15 0
c0344 t054 3 2 45 1
c0356 t055 5 4 15 0
c0369 t056 5 4 39 0
c0352 t057 5 4 75 0
c0363 t058 5 4 25 0
c0348 t059 5 4 198 0
c0358 t018 5 4 80 0
c0364 t060 5 4 68 0
c0365 t061 5 4 68 0
c0353 t062 5 4 73 1
c0381 t063 5 4 95 1
c0402 t064 3 3 38 0
c0395 t065 5 4 21 0

ROOMS:
r36 42 1
r37 42 1
r38 48 1
r31 50 1
r27 90 1
rB 216 0
rD 216 0
rE 216 0
rF 216 0
rG 216 0
rA 312 0
rL 336 0
r50 80 0
r52 90 0
rDS1 90 1
rDS2 90 1

CURRICULA:
q000 3 c0094 c0107 c0112 
q001 3 c0098 c0104 c0114 
q002 2 c0116 c0117 
q003 3 c0210 c0214 c0226 
q004 4 c0284 c0012 c0223 c0218 
q005 4 c0284 c0012 c0013 c0309 
q006 3 c0309 c0301 c0299 
q007 1 c0284 
q008 2 c0035 c0036 
q009 3 c0042 c0045 c0057 
q010 4 c0052 c0053 c0055 c0259 
q011 1 c0063 
q013 3 c0218 c0223 c0284 
q014 2 c0227 c0286 
q015 3 c0227 c0291 c0299 
q016 3 c0177 c0179 c0181 
q017 3 c0254 c0271 c0198 
q018 2 c0063 c0348 
q019 3 c0130 c0151 c0158 
q020 3 c0130 c0151 c0159 
q021 3 c0130 c0151 c0160 
q023 4 c0254 c0259 c0052 c0271 
q025 2 c0284 c0291 
q026 3 c0284 c0579 c0580 
q027 3 c0284 c0291 c0312 
q028 4 c0286 c0299 c299b c0317 
q029 4 c0286 c0301 c0317 c0632 
q030 2 c0286 c0317 
q031 3 c0286 c0308 c0317 
q032 4 c0286 c0309 c309b c0317 
q033 2 c0055 c0063 
q034 2 c0055 c0330 
q035 4 c0342 c0343 c0344 c0625 
q036 2 c0331 c0344 
q037 2 c0343 c0344 
q038 1 c0356 
q039 2 c0358 c0625 
q040 2 c0402 c0625 
q041 2 c0381 c0625 
q042 2 c0063 c0625 
q043 3 c0348 c0363 c0352 
q044 3 c0348 c0363 c0353 
q045 4 c0348 c0364 c0365 c0352 
q046 4 c0348 c0364 c0365 c0353 
q047 2 c0348 c0352 
q048 2 c0348 c0353 
q049 3 c0348 c0369 c0352 
q050 3 c0348 c0369 c0353 
q053 2 c0381 c0259 
q054 2 c0381 c0358 
q055 2 c0381 c0402 
q057 2 c0395 c0624 
q058 1 c0369 
q059 2 c0364 c0365 
q060 4 c0352 c0625 c0348 c0063 
q061 4 c0352 c0457 c0348 c0063 
q062 3 c0481 c0330 c0063 
q063 3 c0330 c0055 c0063 
q064 4 c0330 c0343 c0625 c0063 
q065 5 c0624 c0511 c0395 c0117 c0116 
q066 5 c0624 c0511 c0402 c0117 c0116 
q067a 5 c0624 c0511 c0395 c0365 c0117 
q067b 5 c0624 c0511 c0395 c0364 c0116 
q068 6 c0284 c0579 c0580 c0317 c0301 c0309 
q069 3 c0363 c0036 c0035 
q070 5 c0284 c0317 c0595 c0301 c0309 

UNAVAILABILITY_CONSTRAINTS:
c0012 0 2 
c0012 0 3 
c0012 0 4 
c0012 2 0 
c0012 2 1 
c0012 2 2 
c0012 2 3 
c0012 2 4 
c0013 0 0 
c0013 2 0 
c0013 4 0 
c0035 0 0 
c0035 0 1 
c0035 0 2 
c0035 3 0 
c0035 3 1 
c0035 3 2 
c0035 3 3 
c0035 3 4 
c0035 4 0 
c0035 4 1 
c0035 4 2 
c0035 4 3 
c0035 4 4 
c0036 0 0 
c0036 0 4 
c0036 2 0 
c0036 2 1 
c0036 2 2 
c0036 2 3 
c0036 2 4 
c0036 4 4 
c0042 0 2 
c0042 0 3 
c0042 0 4 
c0042 1 2 
c0042 1 3 
c0042 1 4 
c0042 2 2 
c0042 2 3 
c0042 2 4 
c0042 3 2 
c0042 3 3 
c0042 3 4 
c0042 4 2 
c0042 4 3 
c0042 4 4 
c0045 0 0 
c0045 1 0 
c0045 2 0 
c0045 3 0 
c0045 4 0 
c0052 2 0 
c0052 2 1 
c0052 3 0 
c0052 3 1 
c0052 4 3 
c0052 4 4 
c0053 3 0 
c0053 3 1 
c0053 3 2 
c0053 3 3 
c0053 3 4 
c0055 0 0 
c0055 1 0 
c0055 2 0 
c0055 3 0 
c0055 4 0 
c0057 0 2 
c0057 0 3 
c0057 0 4 
c0057 1 2 
c0057 1 3 
c0057 1 4 
c0057 2 2 
c0057 2 3 
c0057 2 4 
c0057 3 2 
c0057 3 3 
c0057 3 4 
c0057 4 2 
c0057 4 3 
c0057 4 4 
c0094 0 2 
c0094 0 3 
c0094 0 4 
c0094 1 2 
c0094 1 3 
c0094 1 4 
c0094 2 2 
c0094 2 3 
c0094 2 4 
c0094 3 2 
c0094 3 3 
c0094 3 4 
c0094 4 2 
c0094 4 3 
c0094 4 4 
c0098 0 0 
c0098 0 1 
c0098 0 2 
c0098 0 3 
c0098 0 4 
c0098 4 0 
c0098 4 1 
c0098 4 2 
c0098 4 3 
c0098 4 4 
c0104 0 2 
c0104 1 2 
c0104 2 2 
c0104 3 2 
c0104 4 2 
c0107 0 2 
c0107 0 3 
c0107 0 4 
c0107 1 0 
c0107 1 1 
c0107 1 2 
c0107 1 3 
c0107 1 4 
c0107 2 0 
c0107 2 1 
c0107 2 2 
c0107 2 3 
c0107 2 4 
c0107 3 2 
c0107 3 3 
c0107 3 4 
c0107 4 2 
c0107 4 3 
c0107 4 4 
c0112 0 2 
c0112 0 3 
c0112 0 4 
c0112 1 2 
c0112 1 3 
c0112 1 4 
c0112 2 2 
c0112 2 3 
c0112 2 4 
c0112 3 2 
c0112 3 3 
c0112 3 4 
c0112 4 2 
c0112 4 3 
c0112 4 4 
c0114 0 0 
c0114 1 0 
c0114 2 0 
c0114 3 0 
c0114 3 4 
c0114 4 0 
c0114 4 4 
c0116 2 0 
c0116 2 1 
c0116 3 0 
c0116 3 1 
c0116 4 3 
c0116 4 4 
c0117 0 4 
c0117 1 4 
c0117 2 4 
c0117 3 3 
c0117 3 4 
c0117 4 3 
c0117 4 4 
c0130 4 4 
c0151 4 4 
c0177 0 2 
c0177 0 3 
c0177 0 4 
c0177 1 2 
c0177 1 3 
c0177 1 4 
c0177 2 2 
c0177 2 3 
c0177 2 4 
c0177 3 2 
c0177 3 3 
c0177 3 4 
c0177 4 2 
c0177 4 3 
c0177 4 4 
c0179 0 2 
c0179 0 3 
c0179 0 4 
c0179 1 2 
c0179 1 3 
c0179 1 4 
c0179 2 2 
c0179 2 3 
c0179 2 4 
c0179 3 2 
c0179 3 3 
c0179 3 4 
c0179 4 2 
c0179 4 3 
c0179 4 4 
c0181 0 2 
c0181 0 3 
c0181 0 4 
c0181 1 2 
c0181 1 3 
c0181 1 4 
c0181 2 2 
c0181 2 3 
c0181 2 4 
c0181 3 2 
c0181 3 3 
c0181 3 4 
c0181 4 2 
c0181 4 3 
c0181 4 4 
c0198 0 0 
c0198 0 1 
c0198 0 2 
c0198 2 2 
c0198 2 3 
c0198 2 4 
c0198 4 0 
c0198 4 1 
c0210 0 2 
c0210 0 3 
c0210 0 4 
c0210 1 2 
c0210 1 3 
c0210 1 4 
c0210 2 2 
c0210 2 3 
c0210 2 4 
c0210 3 2 
c0210 3 3 
c0210 3 4 
c0210 4 2 
c0210 4 3 
c0210 4 4 
c0214 0 0 
c0214 0 1 
c0214 0 2 
c0214 0 3 
c0214 0 4 
c0214 1 0 
c0214 1 1 
c0214 1 2 
c0214 1 3 
c0214 1 4 
c0214 2 2 
c0214 2 3 
c0214 2 4 
c0214 3 2 
c0214 3 3 
c0214 3 4 
c0214 4 2 
c0214 4 3 
c0214 4 4 
c0218 1 0 
c0218 1 1 
c0218 1 2 
c0218 1 3 
c0218 2 3 
c0218 2 4 
c0218 3 0 
c0218 3 1 
c0223 0 0 
c0223 2 0 
c0223 4 0 
c0226 0 2 
c0226 0 3 
c0226 0 4 
c0226 1 2 
c0226 1 3 
c0226 1 4 
c0226 2 2 
c0226 2 3 
c0226 2 4 
c0226 3 2 
c0226 3 3 
c0226 3 4 
c0226 4 2 
c0226 4 3 
c0226 4 4 
c0227 0 0 
c0227 0 1 
c0227 3 4 
c0227 4 0 
c0227 4 1 
c0227 4 2 
c0227 4 3 
c0227 4 4 
c0254 0 0 
c0254 0 1 
c0254 0 2 
c0254 3 0 
c0254 3 1 
c0254 3 2 
c0259 0 0 
c0259 0 1 
c0259 0 2 
c0259 0 3 
c0259 0 4 
c0259 1 0 
c0259 2 0 
c0259 4 0 
c0259 4 1 
c0259 4 2 
c0259 4 3 
c0259 4 4 
c0271 1 0 
c0271 1 1 
c0271 1 2 
c0271 1 3 
c0271 1 4 
c0271 3 3 
c0271 3 4 
c0271 4 2 
c0271 4 3 
c0271 4 4 
c0625 0 0 
c0625 0 1 
c0625 0 2 
c0625 0 3 
c0625 0 4 
c0625 1 0 
c0625 1 1 
c0625 1 2 
c0625 1 3 
c0624 1 4 
c0624 2 4 
c0624 3 4 
c0624 4 0 
c0624 4 1 
c0624 4 2 
c0624 4 3 
c0624 4 4 
c0063 2 2 
c0063 2 3 
c0063 2 4 
c0063 3 2 
c0063 3 3 
c0063 3 4 
c0063 4 3 
c0063 4 4 
c0309 0 0 
c0309 0 1 
c0309 0 2 
c0309 0 3 
c0309 0 4 
c0309 3 2 
c0309 3 3 
c0309 3 4 
c0309 4 0 
c0309 4 1 
c0309 4 2 
c0309 4 3 
c0309 4 4 
c0301 0 3 
c0301 0 4 
c0301 1 3 
c0301 1 4 
c0301 2 2 
c0301 3 3 
c0301 4 3 
c0301 4 4 
c0317 0 0 
c0317 0 1 
c0317 0 2 
c0317 0 3 
c0317 0 4 
c0317 1 0 
c0317 1 1 
c0317 1 2 
c0284 4 0 
c0284 4 1 
c0284 4 2 
c0284 4 3 
c0284 4 4 
c0330 0 0 
c0330 0 1 
c0330 0 2 
c0342 0 0 
c0342 0 1 
c0342 0 2 
c0342 0 3 
c0342 0 4 
c0342 1 0 
c0342 1 1 
c0342 1 2 
c0342 1 3 
c0342 1 4 
c0343 0 0 
c0343 0 1 
c0343 0 2 
c0343 0 3 
c0343 0 4 
c0343 1 0 
c0343 2 0 
c0343 3 0 
c0331 0 0 
c0331 0 1 
c0331 0 2 
c0331 0 3 
c0331 0 4 
c0331 4 2 
c0331 4 3 
c0331 4 4 
c0344 0 0 
c0344 0 1 
c0344 0 2 
c0344 0 3 
c0344 0 4 
c0344 1 0 
c0344 1 1 
c0344 1 2 
c0344 1 3 
c0344 1 4 
c0344 4 0 
c0344 4 1 
c0344 4 2 
c0344 4 3 
c0344 4 4 
c0369 0 2 
c0369 1 2 
c0369 1 4 
c0369 2 2 
c0369 3 2 
c0369 4 2 
c0369 4 3 
c0369 4 4 
c0352 0 0 
c0352 0 4 
c0352 1 0 
c0352 1 4 
c0352 2 0 
c0352 2 4 
c0352 3 0 
c0352 3 4 
c0352 4 0 
c0352 4 4 
c0363 0 2 
c0363 1 2 
c0363 2 2 
c0363 3 2 
c0363 4 2 
c0348 1 0 
c0348 2 0 
c0348 2 1 
c0348 2 2 
c0348 2 3 
c0348 2 4 
c0348 4 4 
c0353 1 2 
c0353 1 3 
c0353 1 4 
c0353 3 0 
c0353 3 1 
c0353 4 0 
c0353 4 1 
c0353 4 2 
c0381 2 1 
c0381 2 2 
c0381 2 3 
c0381 2 4 
c0381 3 0 
c0381 3 1 
c0381 3 2 
c0381 3 3 
c0381 3 4 
c0381 4 4 
c0402 0 0 
c0402 0 1 
c0402 0 2 
c0402 0 3 
c0402 0 4 
c0402 4 4 

ROOM_CONSTRAINTS:
c0012 r38
c0012 rA
c0012 rDS1
c0013 r37
c0013 rD
c0013 rDS2
c0036 r36
c0042 r36
c0045 rF
c0045 rL
c0052 rG
c0053 rG
c0094 r50
c0094 rDS2
c0098 r36
c0098 rG
c0104 r38
c0104 rD
c0107 rA
c0107 r50
c0114 r50
c0116 rG
c0116 rA
c0116 rL
c0130 r36
c0130 rL
c0151 rL
c0159 rA
c0177 r31
c0181 rDS1
c0198 rE
c0198 rA
c0198 rDS2
c0210 r31
c0210 rF
c0210 rG
c0214 r37
c0223 r27
c0223 rG
c0226 rB
c0227 r37
c0254 rG
c0254 rDS2
c0259 rA
c0259 rDS2
c0457 rA
c0481 rA
c0511 rE
c0511 r50
c0511 rDS2
c0579 r37
c0595 rE
c0632 r52
c0625 rDS2
c0624 rG
c0624 r50
c0063 r31
c0063 rG
c0063 rA
c0286 r37
c0286 rE
c0308 rE
c0308 rA
c0299 rA
c299b rL
c0309 rG
c0312 r31
c0312 rE
c0301 rG
c0301 rDS1
c0284 rG
c0343 r36
c0344 rA
c0356 r37
c0356 rF
c0363 r37
c0363 rA
c0348 rD
c0358 r36
c0358 rB
c0358 rL
c0364 r27
c0364 r52
c0365 rF
c0381 rD
c0395 rA

END.
